(set-option :produce-models true); benchmark generated from python API
(set-info :status unknown)
(declare-fun l_1_0_9 () Real)
(declare-fun l_1_0_8 () Real)
(declare-fun l_1_0_7 () Real)
(declare-fun l_1_0_6 () Real)
(declare-fun l_1_0_5 () Real)
(declare-fun l_1_0_4 () Real)
(declare-fun l_1_0_3 () Real)
(declare-fun l_1_0_2 () Real)
(declare-fun l_1_0_1 () Real)
(declare-fun _a_0_ () Real)
(declare-fun l_1_0_12 () Real)
(declare-fun _a_1_ () Real)
(declare-fun l_1_0_11 () Real)
(declare-fun l_1_0_10 () Real)
(declare-fun _a_2_ () Real)
(declare-fun l_1_0_14 () Real)
(declare-fun l_1_0_13 () Real)
(declare-fun _a_3_ () Real)
(declare-fun l_1_1_9 () Real)
(declare-fun l_1_1_7 () Real)
(declare-fun l_1_1_3 () Real)
(declare-fun l_1_1_2 () Real)
(declare-fun l_1_1_15 () Real)
(declare-fun l_1_1_14 () Real)
(declare-fun l_1_1_13 () Real)
(declare-fun l_1_1_12 () Real)
(declare-fun l_1_1_11 () Real)
(declare-fun l_1_1_1 () Real)
(declare-fun l_1_1_8 () Real)
(declare-fun l_1_1_6 () Real)
(declare-fun l_1_1_5 () Real)
(declare-fun l_1_1_4 () Real)
(declare-fun l_1_1_10 () Real)
(declare-fun l_1_1_18 () Real)
(declare-fun l_1_1_17 () Real)
(declare-fun l_1_1_16 () Real)
(declare-fun l_1_1_20 () Real)
(declare-fun l_1_1_19 () Real)
(declare-fun l_1_2_7 () Real)
(declare-fun l_1_2_6 () Real)
(declare-fun l_1_2_5 () Real)
(declare-fun l_1_2_4 () Real)
(declare-fun l_1_2_3 () Real)
(declare-fun l_1_2_2 () Real)
(declare-fun l_1_2_15 () Real)
(declare-fun l_1_2_14 () Real)
(declare-fun l_1_2_12 () Real)
(declare-fun l_1_2_1 () Real)
(declare-fun l_1_2_9 () Real)
(declare-fun l_1_2_8 () Real)
(declare-fun l_1_2_13 () Real)
(declare-fun l_1_2_11 () Real)
(declare-fun l_1_2_10 () Real)
(declare-fun l_1_2_19 () Real)
(declare-fun l_1_2_17 () Real)
(declare-fun l_1_2_18 () Real)
(declare-fun l_1_2_16 () Real)
(declare-fun l_1_2_20 () Real)
(assert
 (let ((?x44 (* l_1_0_9 l_1_0_9)))
 (let ((?x1207 (* 2.0 l_1_0_7)))
 (let ((?x50 (* 2.0 l_1_0_5)))
 (let ((?x1210 (* 2.0 l_1_0_3)))
 (let ((?x1208 (- (- (- (- (- _a_0_ l_1_0_1) (* 4.0 l_1_0_2)) ?x1210) l_1_0_4) ?x50)))
 (= (- (- (- (- ?x1208 l_1_0_6) ?x1207) l_1_0_8) ?x44) 0.0)))))))
(assert
 (= (- _a_1_ (* (* 2.0 l_1_0_12) l_1_0_9)) 0.0))
(assert
 (let ((?x1211 (* 4.0 l_1_0_2)))
 (let ((?x1103 (+ (- (- _a_2_ (* l_1_0_10 l_1_0_10)) (* l_1_0_11 l_1_0_11)) ?x1211)))
 (= (+ (+ (+ ?x1103 l_1_0_3) l_1_0_5) l_1_0_7) 0.0))))
(assert
 (let ((?x1211 (* 4.0 l_1_0_2)))
 (let ((?x1053 (* l_1_0_14 l_1_0_14)))
 (let ((?x1054 (- (- (- _a_3_ (* l_1_0_12 l_1_0_12)) (* l_1_0_13 l_1_0_13)) ?x1053)))
 (= (+ (+ (+ (+ ?x1054 ?x1211) l_1_0_3) l_1_0_5) l_1_0_7) 0.0)))))
(assert
 (= (- l_1_0_2) 0.0))
(assert
 (= (* (- 2.0) l_1_0_2) 0.0))
(assert
 (= (- l_1_0_2) 0.0))
(assert
 (= (* (* (- 2.0) l_1_0_10) l_1_0_9) 0.0))
(assert
 (let ((?x976 (- (* (* (- 2.0) l_1_0_10) l_1_0_12) (* (* 2.0 l_1_0_11) l_1_0_13))))
 (= ?x976 0.0)))
(assert
 (>= l_1_0_1 0.0))
(assert
 (>= l_1_0_2 0.0))
(assert
 (>= l_1_0_3 0.0))
(assert
 (>= l_1_0_4 0.0))
(assert
 (>= l_1_0_5 0.0))
(assert
 (>= l_1_0_6 0.0))
(assert
 (>= l_1_0_7 0.0))
(assert
 (>= l_1_0_8 0.0))
(assert
 (>= l_1_0_9 0.0))
(assert
 (>= l_1_0_11 0.0))
(assert
 (>= l_1_0_14 0.0))
(assert
 (let ((?x874 (* 3.0 l_1_1_7)))
 (let ((?x872 (* 9.0 l_1_1_3)))
 (let ((?x870 (* 3.0 l_1_1_2)))
 (let ((?x868 (* l_1_1_15 l_1_1_15)))
 (let ((?x864 (* 3.0 l_1_1_12)))
 (let ((?x860 (* _a_0_ l_1_1_8)))
 (let ((?x857 (+ (- (* (- _a_0_) l_1_1_10) (* _a_0_ l_1_1_4)) (* (* 3.0 _a_0_) l_1_1_5))))
 (let ((?x863 (- (- (- (+ ?x857 (* (* 3.0 _a_0_) l_1_1_6)) ?x860) l_1_1_1) l_1_1_11)))
 (let ((?x873 (- (+ (- (- (- (+ ?x863 ?x864) l_1_1_13) l_1_1_14) ?x868) ?x870) ?x872)))
 (= (+ (- (+ ?x873 ?x874) (* (* l_1_1_9 _a_0_) _a_0_)) (/ 121.0 100.0)) 0.0)))))))))))
(assert
 (let ((?x726 (* _a_1_ l_1_1_8)))
 (let ((?x30 (* _a_1_ l_1_1_4)))
 (let ((?x468 (* _a_1_ l_1_1_10)))
 (let ((?x478 (+ (- (- (* (* (* (- 2.0) _a_0_) _a_1_) l_1_1_9) ?x468) ?x30) (* (* 3.0 _a_1_) l_1_1_5))))
 (let ((?x403 (- (- (+ ?x478 (* (* 3.0 _a_1_) l_1_1_6)) ?x726) (* (* 2.0 l_1_1_15) l_1_1_18))))
 (= (+ ?x403 1.0) 0.0)))))))
(assert
 (let ((?x586 (* 6.0 l_1_1_3)))
 (let ((?x584 (* l_1_1_17 l_1_1_17)))
 (let ((?x611 (* l_1_1_16 l_1_1_16)))
 (let ((?x610 (* _a_2_ l_1_1_8)))
 (let ((?x624 (* _a_2_ l_1_1_4)))
 (let ((?x622 (* _a_2_ l_1_1_10)))
 (let ((?x561 (- (- (- (* (* (* (- 2.0) _a_0_) _a_2_) l_1_1_9) ?x622) ?x624) ?x610)))
 (let ((?x559 (- (+ (- (- (- (- ?x561 l_1_1_12) ?x611) ?x584) l_1_1_2) ?x586) (* l_1_1_5 (- _a_0_ (* 3.0 _a_2_))))))
 (let ((?x530 (- (- (- ?x559 (* l_1_1_6 (- _a_0_ (* 3.0 _a_2_)))) l_1_1_7) (/ 1.0 5.0))))
 (= ?x530 0.0)))))))))))
(assert
 (let ((?x586 (* 6.0 l_1_1_3)))
 (let ((?x285 (* l_1_1_20 l_1_1_20)))
 (let ((?x280 (* l_1_1_19 l_1_1_19)))
 (let ((?x315 (* l_1_1_18 l_1_1_18)))
 (let ((?x311 (* _a_3_ l_1_1_8)))
 (let ((?x314 (- (- (- (* (- _a_3_) l_1_1_10) (* _a_3_ l_1_1_4)) ?x311) l_1_1_12)))
 (let ((?x277 (- (+ (- (- (- (- ?x314 ?x315) ?x280) l_1_1_2) ?x285) ?x586) (* l_1_1_5 (- _a_0_ (* 3.0 _a_3_))))))
 (let ((?x9 (- (- (- ?x277 (* l_1_1_6 (- _a_0_ (* 3.0 _a_3_)))) l_1_1_7) (* l_1_1_9 (+ (* (* 2.0 _a_0_) _a_3_) (* _a_1_ _a_1_))))))
 (= ?x9 0.0))))))))))
(assert
 (let ((?x100 (- (- (- (* (- _a_2_) l_1_1_5) (* _a_2_ l_1_1_6)) l_1_1_3) (* (* l_1_1_9 _a_2_) _a_2_))))
 (= ?x100 0.0)))
(assert
 (let ((?x672 (- (- (* (* (* (- 2.0) _a_2_) _a_3_) l_1_1_9) (* 2.0 l_1_1_3)) (* l_1_1_5 (+ _a_2_ _a_3_)))))
 (= (- ?x672 (* l_1_1_6 (+ _a_2_ _a_3_))) 0.0)))
(assert
 (let ((?x839 (- (- (- (* (- _a_3_) l_1_1_5) (* _a_3_ l_1_1_6)) l_1_1_3) (* (* l_1_1_9 _a_3_) _a_3_))))
 (= ?x839 0.0)))
(assert
 (let ((?x663 (* _a_1_ l_1_1_6)))
 (let ((?x709 (* _a_1_ l_1_1_5)))
 (= (- (- (* (* (* (- 2.0) _a_1_) _a_2_) l_1_1_9) ?x709) ?x663) 0.0))))
(assert
 (let ((?x663 (* _a_1_ l_1_1_6)))
 (let ((?x709 (* _a_1_ l_1_1_5)))
 (= (- (- (* (* (* (- 2.0) _a_1_) _a_3_) l_1_1_9) ?x709) ?x663) 0.0))))
(assert
 (= (* (* (- 2.0) l_1_1_15) l_1_1_16) 0.0))
(assert
 (let ((?x572 (- (* (* (- 2.0) l_1_1_16) l_1_1_18) (* (* 2.0 l_1_1_17) l_1_1_19))))
 (= ?x572 0.0)))
(assert
 (>= l_1_1_1 0.0))
(assert
 (>= l_1_1_2 0.0))
(assert
 (>= l_1_1_3 0.0))
(assert
 (>= l_1_1_4 0.0))
(assert
 (>= l_1_1_5 0.0))
(assert
 (>= l_1_1_6 0.0))
(assert
 (>= l_1_1_7 0.0))
(assert
 (>= l_1_1_8 0.0))
(assert
 (>= l_1_1_9 0.0))
(assert
 (>= l_1_1_10 0.0))
(assert
 (>= l_1_1_11 0.0))
(assert
 (>= l_1_1_12 0.0))
(assert
 (>= l_1_1_13 0.0))
(assert
 (>= l_1_1_14 0.0))
(assert
 (>= l_1_1_15 0.0))
(assert
 (>= l_1_1_17 0.0))
(assert
 (>= l_1_1_20 0.0))
(assert
 (let ((?x1126 (* 3.0 l_1_2_5)))
 (let ((?x632 (* 9.0 l_1_2_4)))
 (let ((?x1160 (* 3.0 l_1_2_3)))
 (let ((?x395 (* 3.0 l_1_2_2)))
 (let ((?x322 (* l_1_2_15 l_1_2_15)))
 (let ((?x816 (* _a_0_ l_1_2_9)))
 (let ((?x812 (* _a_0_ l_1_2_8)))
 (let ((?x807 (* _a_0_ l_1_2_13)))
 (let ((?x811 (- (* (* (- 3.0) _a_0_) l_1_2_10) (* (* 3.0 _a_0_) l_1_2_11))))
 (let ((?x822 (+ (+ (+ (- (- (- ?x811 ?x807) ?x812) ?x816) _a_0_) (* 1.0 _a_1_)) (* 1.0 _a_2_))))
 (let ((?x917 (- (- (- (+ ?x822 (* 1.0 _a_3_)) l_1_2_1) l_1_2_12) l_1_2_14)))
 (let ((?x593 (- (- (- (- (- (- (- ?x917 ?x322) ?x395) ?x1160) ?x632) ?x1126) l_1_2_6) (* (* l_1_2_7 _a_0_) _a_0_))))
 (= ?x593 0.0))))))))))))))
(assert
 (let ((?x954 (* 4.0 _a_3_)))
 (let ((?x953 (* 2.0 _a_1_)))
 (let ((?x955 (+ ?x953 ?x954)))
 (let ((?x959 (- (- ?x955 (* (* 2.0 l_1_2_16) l_1_2_18)) (* (* 2.0 l_1_2_17) l_1_2_19))))
 (= ?x959 0.0))))))
(assert
 (let ((?x177 (* 6.0 l_1_2_4)))
 (let ((?x179 (* l_1_2_20 l_1_2_20)))
 (let ((?x519 (* l_1_2_19 l_1_2_19)))
 (let ((?x601 (* l_1_2_18 l_1_2_18)))
 (let ((?x655 (* 2.0 _a_3_)))
 (let ((?x648 (* _a_3_ l_1_2_9)))
 (let ((?x646 (* _a_3_ l_1_2_8)))
 (let ((?x171 (+ (- (- (- (+ _a_1_ _a_2_) (* _a_3_ l_1_2_13)) ?x646) ?x648) ?x655)))
 (let ((?x600 (- (- ?x171 (* l_1_2_10 (+ (- _a_0_) (* 3.0 _a_3_)))) (* l_1_2_11 (+ (- _a_0_) (* 3.0 _a_3_))))))
 (let ((?x885 (+ (+ (- (+ (- (- ?x600 ?x601) ?x519) l_1_2_2) ?x179) l_1_2_3) ?x177)))
 (let ((?x843 (- (+ ?x885 l_1_2_5) (* l_1_2_7 (+ (* (* 2.0 _a_0_) _a_3_) (* _a_1_ _a_1_))))))
 (= ?x843 0.0)))))))))))))
(assert
 (let ((?x1033 (- (+ (+ (* _a_2_ l_1_2_10) (* _a_2_ l_1_2_11)) _a_2_) l_1_2_4)))
 (= (- ?x1033 (* (* l_1_2_7 _a_2_) _a_2_)) 0.0)))
(assert
 (let ((?x681 (* 2.0 _a_2_)))
 (let ((?x679 (* _a_1_ l_1_2_11)))
 (let ((?x1157 (* _a_1_ l_1_2_10)))
 (let ((?x1035 (+ (+ (+ (* (* (* (- 2.0) _a_1_) _a_2_) l_1_2_7) ?x1157) ?x679) ?x681)))
 (= ?x1035 0.0))))))
(assert
 (let ((?x177 (* 6.0 l_1_2_4)))
 (let ((?x374 (* l_1_2_17 l_1_2_17)))
 (let ((?x512 (* l_1_2_16 l_1_2_16)))
 (let ((?x681 (* 2.0 _a_2_)))
 (let ((?x1070 (* _a_2_ l_1_2_9)))
 (let ((?x1068 (* _a_2_ l_1_2_8)))
 (let ((?x1072 (* _a_2_ l_1_2_13)))
 (let ((?x1036 (- (- (- (* (* (* (- 2.0) _a_0_) _a_2_) l_1_2_7) ?x1072) ?x1068) ?x1070)))
 (let ((?x510 (- (- (- ?x1036 ?x681) (* l_1_2_10 (+ (- _a_0_) (* 3.0 _a_2_)))) (* l_1_2_11 (+ (- _a_0_) (* 3.0 _a_2_))))))
 (let ((?x999 (+ (+ (+ (+ (- (- ?x510 ?x512) ?x374) l_1_2_2) l_1_2_3) ?x177) l_1_2_5)))
 (= ?x999 0.0))))))))))))
(assert
 (let ((?x681 (* 2.0 _a_2_)))
 (let ((?x457 (* _a_1_ l_1_2_9)))
 (let ((?x455 (* _a_1_ l_1_2_8)))
 (let ((?x518 (* _a_1_ l_1_2_13)))
 (let ((?x692 (- (* (* (* (- 2.0) _a_0_) _a_1_) l_1_2_7) (* (* 3.0 _a_1_) l_1_2_10))))
 (let ((?x378 (- (- (- (- ?x692 (* (* 3.0 _a_1_) l_1_2_11)) ?x518) ?x455) ?x457)))
 (= (- (- ?x378 ?x681) (* (* 2.0 l_1_2_15) l_1_2_18)) 0.0))))))))
(assert
 (let ((?x432 (* 2.0 l_1_2_4)))
 (let ((?x292 (- (+ (* (* (* (- 2.0) _a_2_) _a_3_) l_1_2_7) (* 4.0 _a_3_)) (* l_1_2_10 (- (- _a_2_) _a_3_)))))
 (= (- (- ?x292 (* l_1_2_11 (- (- _a_2_) _a_3_))) ?x432) 0.0))))
(assert
 (let ((?x954 (* 4.0 _a_3_)))
 (= ?x954 0.0)))
(assert
 (let ((?x1016 (- (+ (+ (* _a_3_ l_1_2_10) (* _a_3_ l_1_2_11)) _a_3_) l_1_2_4)))
 (= (- ?x1016 (* (* l_1_2_7 _a_3_) _a_3_)) 0.0)))
(assert
 (let ((?x679 (* _a_1_ l_1_2_11)))
 (let ((?x1157 (* _a_1_ l_1_2_10)))
 (= (+ (+ (* (* (* (- 2.0) _a_1_) _a_3_) l_1_2_7) ?x1157) ?x679) 0.0))))
(assert
 (= (* (* (- 2.0) l_1_2_15) l_1_2_16) 0.0))
(assert
 (>= l_1_2_1 0.0))
(assert
 (>= l_1_2_2 0.0))
(assert
 (>= l_1_2_3 0.0))
(assert
 (>= l_1_2_4 0.0))
(assert
 (>= l_1_2_5 0.0))
(assert
 (>= l_1_2_6 0.0))
(assert
 (>= l_1_2_7 0.0))
(assert
 (>= l_1_2_8 0.0))
(assert
 (>= l_1_2_9 0.0))
(assert
 (>= l_1_2_10 0.0))
(assert
 (>= l_1_2_11 0.0))
(assert
 (>= l_1_2_12 0.0))
(assert
 (>= l_1_2_13 0.0))
(assert
 (>= l_1_2_14 0.0))
(assert
 (>= l_1_2_15 0.0))
(assert
 (>= l_1_2_17 0.0))
(assert
 (>= l_1_2_20 0.0))
(check-sat)
(get-model)